NAME : lr201.1253237.tour
COMMENT : Cost = 0_1253237
COMMENT : Found by LKH [Keld Helsgaun] Fri Sep 15 17:42:01 2017
TYPE : TOUR
DIMENSION : 106
TOUR_SECTION
1
3
73
40
76
24
68
22
74
41
54
88
58
42
23
57
27
69
55
75
5
56
26
102
25
81
78
105
6
84
46
83
48
37
65
12
20
63
89
8
9
19
91
50
47
49
18
94
61
90
104
96
60
93
43
16
15
99
62
17
45
39
87
86
100
85
103
7
95
97
98
38
44
92
101
14
59
106
34
66
64
32
70
53
28
29
13
30
77
31
72
10
52
82
80
79
35
4
51
21
11
33
67
36
71
2
-1
EOF
